60
23 5
15 34
8 58
16 11
20 88
23 52
15 38
1 6
27 62
8 11
25 66
24 18
5 33
26 63
5 98
12 67
22 28
5 16
9 60
7 3
14 50
30 91
17 38
12 80
22 15
10 59
28 98
22 14
28 2
9 9
16 64
21 52
30 27
28 28
22 98
27 36
9 35
25 86
17 27
21 76
16 58
7 73
18 13
7 89
7 65
8 65
27 72
21 71
30 88
25 40
28 31
17 31
9 6
22 41
8 85
25 24
26 5
28 1
29 85
11 84
